File : Instances/p29
Used 153s
12450

1 0 1 0 0 1 1 0 1 0 0 1 0 0 1 1 0 1 0 0 1 0 0 0 1 0 0 0 0 0 
20 11 6 2 20 5 2 24 8 17 5 8 8 20 2 14 14 17 5 11 2 0 5 17 15 8 2 24 5 15 5 11 6 11 20 20 24 15 0 14 0 14 15 8 24 14 0 20 11 8 24 14 14 5 6 20 17 0 0 14 0 5 20 0 11 11 24 0 24 24 8 6 11 17 24 8 15 20 14 24 20 0 20 17 2 17 17 0 20 5 2 24 17 11 17 5 2 2 0 6 8 17 17 11 2 5 17 11 14 8 14 14 2 11 11 0 24 15 24 24 5 8 11 20 8 17 5 15 0 15 0 11 24 15 8 14 17 5 20 17 0 8 20 14 8 11 11 5 2 5 
